1000 791637
262987 479258
806060 40425.8
193487 551243
738749 72157.8
498005 250332
727756 83654.1
560636 188179
223098 525756
382054 420442
569582 181530
484258 307146
342441 432827
13985.9 753792
131934 622032
86892.2 685709
40334.7 714430
306314 463620
674221 109392
671531 136378
330634 450205
560025 198091
179046 595638
80467.8 686417
543513 216567
193042 569358
493989 266133
604600 171883
472857 332027
430760 337863
391504 375388
487517 273152
517278 243677
487517 273152
708792 108927
488051 272800
1766.19 759803
701537 109387
544423 216558
545583 216248
157880 603353
261584 499667
61372.2 703780
259623 514452
112286 649407
604186 172352
291016 472253
65821 696362
111072 651276
625572 158405
187658 589144
321398 454936
430620 339727
39157.9 723267
492317 270326
311391 458194
341722 435553
473222 324108
388780 395842
530284 242328
65497.3 700321
109177 663392
100115 674951
555426 211787
655680 158053
108267 666292
220237 550794
130446 646317
385622 405161
